Route #1: 1
Route #2: 31 20 6 33
Route #3: 51 46 8 27 35 44
Route #4: 39 3 5 25
Route #5: 4 28 22 30 37 2 36 50 43 23 19 15 32
Route #6: 7 12 45 48 42 16
Route #7: 47 9 17 41 24 11 52
Route #8: 49 29 10 26 40 18 38
Route #9: 13 34 21 14
cost: 1161.3782790577752
